270
100
2 1
8 2
1 3
8 2
6 9
8 4
2 6
4 3
7 7
2 1
6 8
5 3
6 8
8 3
6 9
5 2
7 7
1 6
8 2
2 6
9 5
9 7
7 1
7 5
9 7
9 3
9 4
5 3
2 1
2 5
6 4
1 8
1 6
4 4
6 7
4 6
2 5
8 3
5 6
8 3
7 2
1 4
1 3
3 9
6 4
5 3
6 1
3 1
3 8
4 3
3 5
2 4
2 7
9 3
9 6
1 2
6 3
6 7
5 5
5 3
7 3
1 8
6 9
7 6
3 2
9 6
8 2
4 5
5 9
3 5
1 7
1 8
1 6
1 9
3 7
7 1
3 9
6 5
7 1
6 8
8 5
7 3
7 9
9 2
6 6
4 3
7 4
3 8
9 9
2 8
7 9
7 2
9 4
1 8
2 6
2 3
8 4
1 7
4 7
3 1
